;; ===================== PROJECTED CANON (QE) =====================
;; Each clause below is entailed by Proj = ∃W.F over the canonical vocabulary.
;; Units appear first for clarity; OR-clauses (SAT-filtered) follow.
;; ==================================================================

;; Unit Bool constraints (entailed)
(assert (not patient_has_undergone_partial_excision_of_small_intestine_inthehistory))
(assert (not patient_has_finding_of_acute_peptic_ulcer_now))
(assert (not patient_has_finding_of_barrett_s_esophagus_now))
(assert (not patient_has_finding_of_malignant_neoplasm_of_digestive_system_now))
(assert (not patient_has_diagnosis_of_crohn_s_disease_now))
(assert (not patient_has_diagnosis_of_inflammatory_bowel_disease_now))
(assert (not patient_has_diagnosis_of_irritable_bowel_syndrome_now))
(assert (not patient_has_diagnosis_of_ulcerative_colitis_now))
(assert (not patient_has_diagnosis_of_zollinger_ellison_syndrome_now))
(assert (not patient_has_diagnosis_of_alcohol_abuse_inthehistory))
(assert (not patient_has_diagnosis_of_alcohol_dependence_inthehistory))
(assert (not patient_is_pregnant_now))
(assert (not patient_is_lactating_now))
